Problem:    
Rows:       113
Columns:    45 (34 integer, 34 binary)
Non-zeros:  350
Status:     INTEGER OPTIMAL
Objective:  value = 21.1653 (MINimum)

   No.   Row name        Activity     Lower bound   Upper bound
------ ------------    ------------- ------------- -------------
     1 r.5                   21.1653             0               
     2 r.6                  -494.706      -495.721               
     3 r.7                   521.165             0               
     4 r.8                  -478.835      -493.096               
     5 r.9                   21.1653             0               
     6 r.10                 -491.347      -492.362               
     7 r.11                  521.165             0               
     8 r.12                 -485.738      -488.144               
     9 r.13                  521.165             0               
    10 r.14                 -478.835      -486.231               
    11 r.15                  21.1653             0               
    12 r.16                  21.1653      -479.808               
    13 r.17                  521.165             0               
    14 r.18                 -492.604      -493.619               
    15 r.19                  21.1653             0               
    16 r.20                  21.1653      -488.628               
    17 r.21                  521.165             0               
    18 r.22                 -498.985      -498.985               
    19 r.23                  21.1653             0               
    20 r.24                   1.0148      -497.364               
    21 r.25                        1             1             = 
    22 r.26                        1             1             = 
    23 r.27                        1             1             = 
    24 r.28                        1             1             = 
    25 r.29                        1             1             = 
    26 r.30                      500             2               
    27 r.31                     -500          -501               
    28 r.32                  2051.36      -492.362               
    29 r.33                        2             2               
    30 r.34                       -2          -501               
    31 r.35                  -6.9037      -488.144               
    32 r.36                      501             2               
    33 r.37                     -501          -501               
    34 r.38                  2563.87      -486.231               
    35 r.39                      501             2               
    36 r.40                     -501          -501               
    37 r.41                     2048      -479.808               
    38 r.42                      501             2               
    39 r.43                     -501          -501               
    40 r.44                   2550.1      -493.619               
    41 r.45                      501             2               
    42 r.46                     -501          -501               
    43 r.47                     2048      -488.628               
    44 r.48                 -495.721      -495.721               
    45 r.49                 -479.849      -493.096               
    46 r.50                 -495.721      -495.721               
    47 r.51                  -479.85      -493.096               
    48 r.52                      500             2               
    49 r.53                     -500          -501               
    50 r.54                  2044.64        4.2787               
    51 r.55                        2             2               
    52 r.56                       -2          -501               
    53 r.57                   6.9037        6.9037               
    54 r.58                      501             2               
    55 r.59                     -501          -501               
    56 r.60                  2560.51      -486.231               
    57 r.61                      501             2               
    58 r.62                     -501          -501               
    59 r.63                   2054.9      -479.808               
    60 r.64                      501             2               
    61 r.65                     -501          -501               
    62 r.66                  2546.74      -493.619               
    63 r.67                      501             2               
    64 r.68                     -501          -501               
    65 r.69                   2054.9      -488.628               
    66 r.70                 -492.362      -492.362               
    67 r.71                 -486.753      -488.144               
    68 r.72                 -492.362      -492.362               
    69 r.73                 -486.753      -488.144               
    70 r.74                      501             2               
    71 r.75                     -501          -501               
    72 r.76                  1532.13        4.2787               
    73 r.77                      501             2               
    74 r.78                     -501          -501               
    75 r.79                     2048        6.9037               
    76 r.80                      501             2               
    77 r.81                     -501          -501               
    78 r.82                  1535.49        7.6379               
    79 r.83                      501             2               
    80 r.84                     -501          -501               
    81 r.85                   2041.1       11.8558               
    82 r.86                        2             2               
    83 r.87                       -2          -501               
    84 r.88                 -13.7691      -493.619               
    85 r.89                      500             2               
    86 r.90                     -500          -501               
    87 r.91                     2048      -488.628               
    88 r.92                 -479.849      -486.231               
    89 r.93                  20.1505      -479.808               
    90 r.94                  -479.85      -486.231               
    91 r.95                  20.1505      -479.808               
    92 r.96                      501             2               
    93 r.97                     -501          -501               
    94 r.98                   1545.9        4.2787               
    95 r.99                      501             2               
    96 r.100                    -501          -501               
    97 r.101                    2048        6.9037               
    98 r.102                     501             2               
    99 r.103                    -501          -501               
   100 r.104                 1549.26        7.6379               
   101 r.105                     501             2               
   102 r.106                    -501          -501               
   103 r.107                  2041.1       11.8558               
   104 r.108                       2             2               
   105 r.109                      -2          -501               
   106 r.110                 13.7691       13.7691               
   107 r.111                     500             2               
   108 r.112                    -500          -501               
   109 r.113                    2048       20.1922               
   110 r.114                -493.619      -493.619               
   111 r.115                 20.1505      -488.628               
   112 r.116                -493.619      -493.619               
   113 r.117                 20.1505      -488.628               

   No. Column name       Activity     Lower bound   Upper bound
------ ------------    ------------- ------------- -------------
     1 tt                    21.1653             0               
     2 s_1_1        *              0             0             1 
     3 t_1_1                 515.872             0               
     4 s_2_1        *              1             0             1 
     5 t_2_1                       0             0               
     6 s_1_2        *              0             0             1 
     7 t_1_2                 512.513             0               
     8 s_2_2        *              1             0             1 
     9 t_2_2                  6.9037             0               
    10 s_1_3        *              1             0             1 
    11 t_1_3                       0             0               
    12 s_2_3        *              0             0             1 
    13 t_2_3                       0             0               
    14 s_1_4        *              1             0             1 
    15 t_1_4                 13.7691             0               
    16 s_2_4        *              0             0             1 
    17 t_2_4                       0             0               
    18 s_1_5        *              1             0             1 
    19 t_1_5                 20.1505             0               
    20 s_2_5        *              0             0             1 
    21 t_2_5                 20.1505             0               
    22 r_1_1_2      *              1             0             1 
    23 u_1_1_2      *              0             0             1 
    24 r_2_1_2      *              0             0             1 
    25 u_2_1_2      *              0             0             1 
    26 r_1_1_3      *              1             0             1 
    27 u_1_1_3      *              0             0             1 
    28 r_2_1_3      *              1             0             1 
    29 u_2_1_3      *              0             0             1 
    30 r_1_1_4      *              1             0             1 
    31 u_1_1_4      *              0             0             1 
    32 r_2_1_4      *              1             0             1 
    33 u_2_1_4      *              0             0             1 
    34 r_1_2_3      *              1             0             1 
    35 u_1_2_3      *              0             0             1 
    36 r_2_2_3      *              1             0             1 
    37 u_2_2_3      *              0             0             1 
    38 r_1_2_4      *              1             0             1 
    39 u_1_2_4      *              0             0             1 
    40 r_2_2_4      *              1             0             1 
    41 u_2_2_4      *              0             0             1 
    42 r_1_3_4      *              0             0             1 
    43 u_1_3_4      *              0             0             1 
    44 r_2_3_4      *              1             0             1 
    45 u_2_3_4      *              0             0             1 

Integer feasibility conditions:

KKT.PE: max.abs.err = 1.14e-13 on row 18
        max.rel.err = 1.01e-16 on row 18
        High quality

KKT.PB: max.abs.err = 5.68e-14 on row 68
        max.rel.err = 1.44e-15 on row 106
        High quality

End of output
